7 
4 
5 
5 
7 
7 
6 
2 
1 
5 
2 
5 
6 
6 
7 
5 
4 
7 
4 
4 
5 
4 
10 
6 
13 
7 
5 
8 
4 
7 
4 
7 
5 
5 
4 
6 
3 
5 
5 
5 
7 
9 
5 
4 
3 
6 
6 
8 
6 
6 
8 
7 
6 
8 
4 
7 
5 
2 
1 
5 
3 
3 
5 
6 
7 
8 
6 
6 
4 
1 
3 
6 
2 
4 
10 
7 
3 
4 
4 
4 
5 
6 
6 
4 
3 
6 
5 
4 
5 
7 
5 
4 
4 
2 
1 
10 
9 
6 
4 
4 
8 
3 
4 
6 
4 
6 
6 
2 
5 
6 
5 
1 
10 
4 
7 
6 
5 
5 
2 
4 
7 
5 
6 
9 
4 
7 
5 
6 
7 
2 
11 
7 
7 
6 
4 
9 
2 
6 
3 
4 
3 
6 
5 
1 
5 
3 
6 
6 
5 
7 
2 
8 
5 
4 
6 
6 
4 
6 
2 
4 
7 
3 
1 
5 
4 
5 
2 
5 
6 
2 
8 
4 
6 
7 
4 
5 
1 
13 
5 
8 
7 
3 
6 
4 
3 
5 
6 
5 
7 
5 
5 
5 
5 
3 
4 
4 
3 
5 
4 
10 
